25
25
1
3
3600
527 540 561 767 923 950 1041 1582 1659 1661 1697 1796 1801 1988 2361 2515 2580 2589 2603 2609 2643 2652 2805 2821 2825 
39 25 38 18 30 32 29 9 15 18 19 32 40 14 6 8 28 14 34 39 11 9 19 39 37 
